50
1000
692
689
681
664
652
649
644
635
632
619
612
597
592
560
528
522
510
496
474
462
460
458
433
403
373
373
363
343
329
325
322
322
321
311
302
299
283
274
264
257
236
201
195
188
187
179
160
158
153
115
